CPXPARAM_Read_DataCheck                          1
Found incumbent of value 0.000000 after 0.00 sec. (0.04 ticks)
Tried aggregator 1 time.
MIP Presolve eliminated 1 rows and 0 columns.
MIP Presolve modified 1 coefficients.
Reduced MIP has 148 rows, 1515 columns, and 7451 nonzeros.
Reduced MIP has 1515 binaries, 0 generals, 0 SOSs, and 0 indicators.
Presolve time = 0.00 sec. (2.92 ticks)
Probing time = 0.00 sec. (2.45 ticks)
Tried aggregator 1 time.
Reduced MIP has 148 rows, 1515 columns, and 7451 nonzeros.
Reduced MIP has 1515 binaries, 0 generals, 0 SOSs, and 0 indicators.
Presolve time = 0.00 sec. (3.30 ticks)
Probing time = 0.00 sec. (2.37 ticks)
Clique table members: 5291.
MIP emphasis: balance optimality and feasibility.
MIP search method: dynamic search.
Parallel mode: deterministic, using up to 4 threads.
Root relaxation solution time = 0.02 sec. (4.27 ticks)

        Nodes                                         Cuts/
   Node  Left     Objective  IInf  Best Integer    Best Bound    ItCnt     Gap

*     0+    0                            0.0000     9169.0000              --- 
      0     0     5311.9867    17        0.0000     5311.9867      338     --- 
*     0+    0                         3154.0000     5311.9867            68.42%
      0     0     5224.2026    33     3154.0000     Cuts: 150      371   65.64%
      0     0     5166.5436    54     3154.0000     Cuts: 150      404   63.81%
      0     0     4926.3278   156     3154.0000  Cliques: 150      555   56.19%
      0     0     4519.7562   263     3154.0000     Cuts: 150      823   43.30%
*     0+    0                         3374.0000     4519.7562            33.96%
      0     0     4356.9869   290     3374.0000     Cuts: 150      966   25.08%
      0     0     4276.2357   331     3374.0000     Cuts: 150     1087   25.08%
      0     0     4088.3791   363     3374.0000     Cuts: 150     1325   21.17%
      0     0     3875.4404   355     3374.0000     Cuts: 145     1548   14.86%
      0     0     3492.0207   331     3374.0000     Cuts: 146     1863    3.35%
      0     0     3387.3378   293     3374.0000     Cuts: 142     2133    0.40%
      0     0     3381.8025    23     3374.0000      Cuts: 55     2225    0.23%
      0     0     3375.1416   136     3374.0000       Cuts: 2     2313    0.03%
      0     0        cutoff           3374.0000     3374.0000     2313    0.00%
Elapsed time = 0.56 sec. (333.76 ticks, tree = 0.01 MB, solutions = 3)

Clique cuts applied:  953
Cover cuts applied:  36
Implied bound cuts applied:  5
Flow cuts applied:  2
Mixed integer rounding cuts applied:  12
Zero-half cuts applied:  1

Root node processing (before b&c):
  Real time             =    0.56 sec. (333.88 ticks)
Parallel b&c, 4 threads:
  Real time             =    0.00 sec. (0.00 ticks)
  Sync time (average)   =    0.00 sec.
  Wait time (average)   =    0.00 sec.
                          ------------
Total (root+branch&cut) =    0.56 sec. (333.88 ticks)
